r = [
0,25,7,20,18,12,32,22,36,42,34,24,10,28,34,32,25,21,20,40,19,35,35,29,42,42,0
];
p = [
0,7,13,28,16,16,27,17,18,24,30,6,14,29,8,30,9,16,17,9,25,17,26,14,1,5,0
];
e = [
0,16,17,11,1,5,14,2,19,2,18,1,18,15,11,5,13,3,11,12,19,7,7,11,14,18,0
];
d = [
0,423,390,400,400,394,399,386,417,402,434,399,382,405,398,408,409,409,409,412,401,432,415,423,419,414,437
];
d_bar = [
0,424,391,403,402,396,402,388,419,404,437,400,383,408,399,411,410,411,411,413,404,434,418,424,420,415,437
];
w = [
0,16,17,3.666666667,0.5,2.5,4.666666667,1,9.5,1,6,1,18,5,11,1.666666667,13,1.5,5.5,12,6.333333333,3.5,2.333333333,11,14,18,0
];
